/* Objective function */
min: +C17 +C18 +C19 +C20;

/* Constraints */
+116 C1 +53 C2 +72 C3 +111 C4 -118 C17 <= 0;
+116 C5 +53 C6 +72 C7 +111 C8 -118 C18 <= 0;
+116 C9 +53 C10 +72 C11 +111 C12 -118 C19 <= 0;
+116 C13 +53 C14 +72 C15 +111 C16 -118 C20 <= 0;
+2 C1 +3 C2 +7 C3 +4 C4 -14 C17 <= 0;
+2 C5 +3 C6 +7 C7 +4 C8 -14 C18 <= 0;
+2 C9 +3 C10 +7 C11 +4 C12 -14 C19 <= 0;
+2 C13 +3 C14 +7 C15 +4 C16 -14 C20 <= 0;
+C1 +C5 +C9 +C13 = 1;
+C2 +C6 +C10 +C14 = 1;
+C3 +C7 +C11 +C15 = 1;
+C4 +C8 +C12 +C16 = 1;

/* Variable bounds */
C1 <= 1;
C2 <= 1;
C3 <= 1;
C4 <= 1;
C5 <= 1;
C6 <= 1;
C7 <= 1;
C8 <= 1;
C9 <= 1;
C10 <= 1;
C11 <= 1;
C12 <= 1;
C13 <= 1;
C14 <= 1;
C15 <= 1;
C16 <= 1;
C17 <= 1;
C18 <= 1;
C19 <= 1;
C20 <= 1;

/* Integer definitions */
int C1,C2,C3,C4,C5,C6,C7,C8,C9,C10,C11,C12,C13,C14,C15,C16,C17,C18,C19,C20;
